10 45
1 2 9
1 3 15
1 4 12
1 5 23
1 6 1
1 7 12
1 8 0
1 9 25
1 10 8
2 3 11
2 4 11
2 5 24
2 6 8
2 7 25
2 8 23
2 9 12
2 10 27
3 4 23
3 5 24
3 6 0
3 7 9
3 8 12
3 9 29
3 10 18
4 5 15
4 6 21
4 7 3
4 8 19
4 9 19
4 10 9
5 6 13
5 7 27
5 8 24
5 9 7
5 10 5
6 7 24
6 8 6
6 9 16
6 10 29
7 8 28
7 9 12
7 10 1
8 9 25
8 10 10
9 10 25
